p cnf 263 682
-37 -32 0
-37 34 0
37 32 -34 0
-38 -28 0
-38 30 0
38 28 -30 0
-39 -24 0
-39 26 0
39 24 -26 0
-40 -20 0
-40 22 0
40 20 -22 0
-41 -16 0
-41 18 0
41 16 -18 0
-42 -12 0
-42 14 0
42 12 -14 0
-43 -8 0
-43 10 0
43 8 -10 0
-44 -1 0
-44 2 0
44 1 -2 0
-45 -4 0
-45 6 0
45 4 -6 0
-46 -44 0
-46 -45 0
46 44 45 0
-47 -43 0
-47 46 0
47 43 -46 0
-48 -42 0
-48 47 0
48 42 -47 0
-49 -41 0
-49 48 0
49 41 -48 0
-50 -40 0
-50 49 0
50 40 -49 0
-51 -39 0
-51 50 0
51 39 -50 0
-52 -38 0
-52 51 0
52 38 -51 0
-53 -37 0
-53 52 0
53 37 -52 0
-54 -37 0
-54 53 0
54 37 -53 0
-55 37 0
-55 -53 0
55 -37 53 0
-56 -54 0
-56 -55 0
56 54 55 0
-57 34 0
-57 -35 0
57 -34 35 0
-58 -56 0
-58 57 0
58 56 -57 0
-59 -38 0
-59 53 0
59 38 -53 0
-60 38 0
-60 -53 0
60 -38 53 0
-61 -59 0
-61 -60 0
61 59 60 0
-62 30 0
-62 -31 0
62 -30 31 0
-63 -61 0
-63 62 0
63 61 -62 0
-64 -39 0
-64 53 0
64 39 -53 0
-65 39 0
-65 -53 0
65 -39 53 0
-66 -64 0
-66 -65 0
66 64 65 0
-67 26 0
-67 -27 0
67 -26 27 0
-68 -66 0
-68 67 0
68 66 -67 0
-69 -40 0
-69 53 0
69 40 -53 0
-70 40 0
-70 -53 0
70 -40 53 0
-71 -69 0
-71 -70 0
71 69 70 0
-72 22 0
-72 -23 0
72 -22 23 0
-73 -71 0
-73 72 0
73 71 -72 0
-74 -41 0
-74 53 0
74 41 -53 0
-75 41 0
-75 -53 0
75 -41 53 0
-76 -74 0
-76 -75 0
76 74 75 0
-77 18 0
-77 -19 0
77 -18 19 0
-78 -76 0
-78 77 0
78 76 -77 0
-79 -42 0
-79 53 0
79 42 -53 0
-80 42 0
-80 -53 0
80 -42 53 0
-81 -79 0
-81 -80 0
81 79 80 0
-82 14 0
-82 -15 0
82 -14 15 0
-83 -81 0
-83 82 0
83 81 -82 0
-84 -43 0
-84 53 0
84 43 -53 0
-85 43 0
-85 -53 0
85 -43 53 0
-86 -84 0
-86 -85 0
86 84 85 0
-87 10 0
-87 -11 0
87 -10 11 0
-88 -86 0
-88 87 0
88 86 -87 0
-89 -44 0
-89 53 0
89 44 -53 0
-90 44 0
-90 -53 0
90 -44 53 0
-91 -89 0
-91 -90 0
91 89 90 0
-92 2 0
-92 -3 0
92 -2 3 0
-93 -91 0
-93 92 0
93 91 -92 0
-94 -45 0
-94 53 0
94 45 -53 0
-95 45 0
-95 -53 0
95 -45 53 0
-96 -94 0
-96 -95 0
96 94 95 0
-97 6 0
-97 -7 0
97 -6 7 0
-98 -96 0
-98 97 0
98 96 -97 0
-99 -93 0
-99 -98 0
99 93 98 0
-100 -88 0
-100 99 0
100 88 -99 0
-101 -83 0
-101 100 0
101 83 -100 0
-102 -78 0
-102 101 0
102 78 -101 0
-103 -73 0
-103 102 0
103 73 -102 0
-104 -68 0
-104 103 0
104 68 -103 0
-105 -63 0
-105 104 0
105 63 -104 0
-106 -58 0
-106 105 0
106 58 -105 0
-107 -58 0
-107 106 0
107 58 -106 0
-108 58 0
-108 -106 0
108 -58 106 0
-109 -107 0
-109 -108 0
109 107 108 0
-110 34 0
-110 -36 0
110 -34 36 0
-111 -56 0
-111 110 0
111 56 -110 0
-112 -109 0
-112 111 0
112 109 -111 0
-113 -63 0
-113 106 0
113 63 -106 0
-114 63 0
-114 -106 0
114 -63 106 0
-115 -113 0
-115 -114 0
115 113 114 0
-116 30 0
-116 -33 0
116 -30 33 0
-117 -61 0
-117 116 0
117 61 -116 0
-118 -115 0
-118 117 0
118 115 -117 0
-119 -68 0
-119 106 0
119 68 -106 0
-120 68 0
-120 -106 0
120 -68 106 0
-121 -119 0
-121 -120 0
121 119 120 0
-122 26 0
-122 -29 0
122 -26 29 0
-123 -66 0
-123 122 0
123 66 -122 0
-124 -121 0
-124 123 0
124 121 -123 0
-125 -73 0
-125 106 0
125 73 -106 0
-126 73 0
-126 -106 0
126 -73 106 0
-127 -125 0
-127 -126 0
127 125 126 0
-128 22 0
-128 -25 0
128 -22 25 0
-129 -71 0
-129 128 0
129 71 -128 0
-130 -127 0
-130 129 0
130 127 -129 0
-131 -78 0
-131 106 0
131 78 -106 0
-132 78 0
-132 -106 0
132 -78 106 0
-133 -131 0
-133 -132 0
133 131 132 0
-134 18 0
-134 -21 0
134 -18 21 0
-135 -76 0
-135 134 0
135 76 -134 0
-136 -133 0
-136 135 0
136 133 -135 0
-137 -83 0
-137 106 0
137 83 -106 0
-138 83 0
-138 -106 0
138 -83 106 0
-139 -137 0
-139 -138 0
139 137 138 0
-140 14 0
-140 -17 0
140 -14 17 0
-141 -81 0
-141 140 0
141 81 -140 0
-142 -139 0
-142 141 0
142 139 -141 0
-143 -88 0
-143 106 0
143 88 -106 0
-144 88 0
-144 -106 0
144 -88 106 0
-145 -143 0
-145 -144 0
145 143 144 0
-146 10 0
-146 -13 0
146 -10 13 0
-147 -86 0
-147 146 0
147 86 -146 0
-148 -145 0
-148 147 0
148 145 -147 0
-149 -93 0
-149 106 0
149 93 -106 0
-150 93 0
-150 -106 0
150 -93 106 0
-151 -149 0
-151 -150 0
151 149 150 0
-152 2 0
-152 -5 0
152 -2 5 0
-153 -91 0
-153 152 0
153 91 -152 0
-154 -151 0
-154 153 0
154 151 -153 0
-155 -98 0
-155 106 0
155 98 -106 0
-156 98 0
-156 -106 0
156 -98 106 0
-157 -155 0
-157 -156 0
157 155 156 0
-158 6 0
-158 -9 0
158 -6 9 0
-159 -96 0
-159 158 0
159 96 -158 0
-160 -157 0
-160 159 0
160 157 -159 0
-161 -154 0
-161 -160 0
161 154 160 0
-162 -148 0
-162 161 0
162 148 -161 0
-163 -142 0
-163 162 0
163 142 -162 0
-164 -136 0
-164 163 0
164 136 -163 0
-165 -130 0
-165 164 0
165 130 -164 0
-166 -124 0
-166 165 0
166 124 -165 0
-167 -118 0
-167 166 0
167 118 -166 0
-168 -112 0
-168 167 0
168 112 -167 0
-169 33 0
-169 -168 0
169 -33 168 0
-170 28 0
-170 -53 0
170 -28 53 0
-171 31 0
-171 -106 0
171 -31 106 0
-172 -170 0
-172 -171 0
172 170 171 0
-173 -169 0
-173 172 0
173 169 -172 0
-174 30 0
-174 173 0
174 -30 -173 0
-175 29 0
-175 -168 0
175 -29 168 0
-176 24 0
-176 -53 0
176 -24 53 0
-177 27 0
-177 -106 0
177 -27 106 0
-178 -176 0
-178 -177 0
178 176 177 0
-179 -175 0
-179 178 0
179 175 -178 0
-180 26 0
-180 179 0
180 -26 -179 0
-181 13 0
-181 -168 0
181 -13 168 0
-182 8 0
-182 -53 0
182 -8 53 0
-183 11 0
-183 -106 0
183 -11 106 0
-184 -182 0
-184 -183 0
184 182 183 0
-185 -181 0
-185 184 0
185 181 -184 0
-186 10 0
-186 185 0
186 -10 -185 0
-187 17 0
-187 -168 0
187 -17 168 0
-188 12 0
-188 -53 0
188 -12 53 0
-189 15 0
-189 -106 0
189 -15 106 0
-190 -188 0
-190 -189 0
190 188 189 0
-191 -187 0
-191 190 0
191 187 -190 0
-192 14 0
-192 191 0
192 -14 -191 0
-193 -186 0
-193 -192 0
193 186 192 0
-194 -180 0
-194 193 0
194 180 -193 0
-195 174 0
-195 194 0
195 -174 -194 0
-196 21 0
-196 -168 0
196 -21 168 0
-197 16 0
-197 -53 0
197 -16 53 0
-198 19 0
-198 -106 0
198 -19 106 0
-199 -197 0
-199 -198 0
199 197 198 0
-200 -196 0
-200 199 0
200 196 -199 0
-201 18 0
-201 200 0
201 -18 -200 0
-202 25 0
-202 -168 0
202 -25 168 0
-203 20 0
-203 -53 0
203 -20 53 0
-204 23 0
-204 -106 0
204 -23 106 0
-205 -203 0
-205 -204 0
205 203 204 0
-206 -202 0
-206 205 0
206 202 -205 0
-207 22 0
-207 206 0
207 -22 -206 0
-208 193 0
-208 207 0
208 -193 -207 0
-209 -201 0
-209 208 0
209 201 -208 0
-210 9 0
-210 -168 0
210 -9 168 0
-211 4 0
-211 -53 0
211 -4 53 0
-212 7 0
-212 -106 0
212 -7 106 0
-213 -211 0
-213 -212 0
213 211 212 0
-214 -210 0
-214 213 0
214 210 -213 0
-215 6 0
-215 214 0
215 -6 -214 0
-216 -186 0
-216 192 0
216 186 -192 0
-217 -215 0
-217 -216 0
217 215 216 0
-218 -209 0
-218 217 0
218 209 -217 0
-219 -195 0
-219 218 0
219 195 -218 0
-220 -192 0
-220 -201 0
220 192 201 0
-221 180 0
-221 220 0
221 -180 -220 0
-222 -186 0
-222 -215 0
222 186 215 0
-223 -209 0
-223 222 0
223 209 -222 0
-224 -221 0
-224 223 0
224 221 -223 0
-225 -216 0
-225 222 0
225 216 -222 0
-226 -201 0
-226 225 0
226 201 -225 0
-227 5 0
-227 -168 0
227 -5 168 0
-228 3 0
-228 -106 0
228 -3 106 0
-229 1 0
-229 -53 0
229 -1 53 0
-230 2 0
-230 -229 0
230 -2 229 0
-231 -228 0
-231 230 0
231 228 -230 0
-232 -227 0
-232 231 0
232 227 -231 0
-233 36 0
-233 -168 0
233 -36 168 0
-234 32 0
-234 -53 0
234 -32 53 0
-235 35 0
-235 -106 0
235 -35 106 0
-236 -234 0
-236 -235 0
236 234 235 0
-237 -233 0
-237 236 0
237 233 -236 0
-238 34 0
-238 237 0
238 -34 -237 0
-239 -192 0
-239 222 0
239 192 -222 0
-240 -201 0
-240 239 0
240 201 -239 0
-241 -207 0
-241 240 0
241 207 -240 0
-242 -180 0
-242 241 0
242 180 -241 0
-243 -174 0
-243 242 0
243 174 -242 0
-244 -238 0
-244 243 0
244 238 -243 0
-245 -232 0
-245 -244 0
245 232 244 0
-246 -53 0
-246 -106 0
246 53 106 0
-247 53 0
-247 106 0
247 -53 -106 0
-248 -246 0
-248 -247 0
248 246 247 0
-249 -168 0
-249 248 0
249 168 -248 0
-250 168 0
-250 -248 0
250 -168 248 0
-251 -249 0
-251 -250 0
251 249 250 0
-252 245 0
-252 251 0
252 -245 -251 0
-253 -245 0
-253 -251 0
253 245 251 0
-254 -252 0
-254 -253 0
254 252 253 0
-255 -226 0
-255 254 0
255 226 -254 0
-256 226 0
-256 -254 0
256 -226 254 0
-257 -255 0
-257 -256 0
257 255 256 0
-258 -224 0
-258 257 0
258 224 -257 0
-259 224 0
-259 -257 0
259 -224 257 0
-260 -258 0
-260 -259 0
260 258 259 0
-261 -219 0
-261 260 0
261 219 -260 0
-262 219 0
-262 -260 0
262 -219 260 0
-263 -261 0
-263 -262 0
263 261 262 0
263 0
